c A SAT instance generated from a 3-CNF formula that had 25 clauses and 50 variables
p cnf 50 25
25 7 -2 0
39 -22 -20 0
17 13 19 0
9 -37 20 0
33 5 -46 0
-3 10 -19 0
-10 -14 -31 0
15 -49 -9 0
-18 -4 23 0
10 -45 23 0
-50 -29 -19 0
-33 11 -18 0
-33 -5 22 0
29 -45 -4 0
1 25 15 0
-26 3 27 0
-36 -45 -7 0
-29 -37 3 0
-40 23 -48 0
-48 24 18 0
15 -34 -38 0
16 -49 36 0
34 -26 24 0
12 -15 -1 0
12 -18 21 0
